50
    71     8    40    99    82    32    65     7    80    19    46    87    62    29    12    94    15    38    33    51    18    37    20    42    39    33    25    22    37    49    41     8    64    24   100    84    59    11    75    98    54    81    81    67    71    17    73    71    23    22
     1    10     8     6     8     4    10     7     1     8    10     5     8     2     5     9     2     2     5     9     6    10     1     3     9    10     7    10     6     1     9     9    10    10     4     9     2     5     3     7     9    10     8    10     6     3     4     7     6     9
  1872  2130  1994  1663  1380  1994  1379  1892  1729  2085  1659  2152  1684  1651  1475  1778  1496  1682  2337  1638  2220  1421  2508  1738  1422  1399  1759  2443  2630  1398  2498  2079  2348  2033  1495  2501  2415  1271  2590  2345  1355  1802  2624  2599  2391  1767  1258  1305  1906  2133
